p cnf 30 75
a 16 2 0
e 1 3 4 5 6 7 8 9 10 11 12 13 14 15 17 18 19 20 21 22 23 24 25 26 27 28 29 30 0
-4 2 0
-4 -3 0
-2 3 4 0
5 -1 0
5 4 0
1 -4 -5 0
8 -6 0
8 -7 0
6 7 -8 0
-5 8 -9 0
5 -8 -9 0
-5 -8 9 0
5 8 9 0
-12 -10 0
-12 -11 0
10 11 12 0
13 -12 0
13 12 0
-14 -7 -15 0
14 7 -15 0
-14 7 15 0
14 -7 15 0
16 -10 0
16 -11 0
10 11 -16 0
-17 15 0
-17 16 0
-15 -16 17 0
-13 -17 -18 0
13 17 -18 0
-13 17 18 0
13 -17 18 0
7 -11 -19 0
-7 11 -19 0
7 11 19 0
-7 -11 19 0
-18 19 -20 0
18 -19 -20 0
-18 -19 20 0
18 19 20 0
-22 -7 0
-22 21 0
7 -21 22 0
23 -20 0
23 -22 0
20 22 -23 0
-9 23 -24 0
9 -23 -24 0
-9 -23 24 0
9 23 24 0
25 11 0
25 16 0
-11 -16 -25 0
26 -25 0
26 -14 0
25 14 -26 0
28 -11 0
28 27 0
11 -27 -28 0
-26 -28 -29 0
26 28 -29 0
-26 28 29 0
26 -28 29 0
-24 -29 -30 0
24 29 -30 0
-24 29 30 0
24 -29 30 0
30 1 2 -7 18 -27 -5 26 0
-3 27 -20 19 -2 0
-28 26 27 2 18 -3 0
28 -26 -21 1 0
-5 -20 23 0
-19 -16 7 14 -29 -3 11 0
9 26 17 22 11 13 14 -19 0
30 0
